<number of tasks>
50

<cycle time>
1000

<order strength>
0.896


<task times>
1 120
2 137
3 477
4 194
5 261
6 99
7 136
8 40
9 34
10 508
11 191
12 130
13 297
14 74
15 112
16 210
17 152
18 118
19 121
20 123
21 85
22 358
23 564
24 197
25 78
26 236
27 144
28 104
29 176
30 128
31 157
32 354
33 81
34 111
35 24
36 106
37 43
38 154
39 218
40 264
41 107
42 438
43 125
44 461
45 234
46 151
47 150
48 51
49 283
50 237

<precedence relations>
1,3
1,4
1,5
2,3
2,4
2,5
3,6
3,7
3,8
4,6
4,7
4,8
5,6
5,7
5,8
6,9
6,10
6,11
6,12
6,13
7,9
7,10
7,11
7,12
7,13
8,9
8,10
8,11
8,12
8,13
9,14
9,15
9,16
10,14
10,15
10,16
11,14
11,15
11,16
12,14
12,15
12,16
13,14
13,15
13,16
14,17
14,18
15,17
15,18
16,17
16,18
17,19
18,19
19,20
19,21
20,22
20,23
20,24
21,22
21,23
21,24
22,25
22,26
22,27
22,28
23,25
23,26
23,27
23,28
24,25
24,34
25,33
26,29
26,31
27,32
27,45
28,29
28,30
29,33
29,37
30,32
30,33
31,35
32,34
33,35
34,36
34,37
35,36
35,38
36,39
36,40
36,41
38,39
38,42
39,44
40,46
41,43
41,49
41,50
42,43
42,44
42,45
44,47
45,47
46,47
47,48
47,49
47,50

<end>
